Rodando pra 1h

Optimize a model with 250039 rows, 374280 columns and 4358889 nonzeros
Coefficient statistics:
  Matrix range    [1e+00, 1e+04]
  Objective range [3e-01, 3e-01]
  Bounds range    [1e+00, 1e+04]
  RHS range       [1e+00, 1e+04]
Presolve removed 2 rows and 2 columns (presolve time = 5s) ...
Presolve removed 2 rows and 2 columns (presolve time = 10s) ...
Presolve removed 2 rows and 2 columns (presolve time = 15s) ...
Presolve removed 2 rows and 2 columns (presolve time = 20s) ...
Presolve removed 2 rows and 2 columns (presolve time = 25s) ...
Presolve removed 2 rows and 2 columns
Presolve time: 28.64s
Presolved: 250037 rows, 374278 columns, 4358880 nonzeros
Variable types: 249500 continuous, 124778 integer (124775 binary)
Optimize a model with 250037 rows, 374278 columns and 4358880 nonzeros
Coefficient statistics:
  Matrix range    [1e+00, 1e+04]
  Objective range [3e-01, 3e-01]
  Bounds range    [1e+00, 1e+04]
  RHS range       [1e+00, 2e+04]
Presolved: 250037 rows, 374278 columns, 4358880 nonzeros


Root simplex log...

Iteration    Objective       Primal Inf.    Dual Inf.      Time
       0    0.0000000e+00   1.504975e+03   0.000000e+00     39s
    1020    0.0000000e+00   0.000000e+00   0.000000e+00     40s

Root relaxation: objective 0.000000e+00, 1020 iterations, 2.80 seconds

    Nodes    |    Current Node    |     Objective Bounds      |     Work
 Expl Unexpl |  Obj  Depth IntInf | Incumbent    BestBd   Gap | It/Node Time

     0     0    0.00000    0  512          -    0.00000      -     - 2027s
     0     0          -    0               -    0.00000      -     - 3600s

Cutting planes:
  Flow cover: 194

Explored 0 nodes (379448 simplex iterations) in 3600.02 seconds
Thread count was 1 (of 4 available processors)

Time limit reached
Best objective -, best bound 0.000000000000e+00, gap -
Tempo: 3594.43 segundos

Error code = 10004
Var::get
